(set-info :source |printed by MathSAT|)
(declare-fun param_e3 () Bool)
(declare-fun call_firefly.ite7 () Int)
(declare-fun call_firefly.ite33 () Int)
(declare-fun param_e5 () Bool)
(declare-fun call_firefly.invalid () Int)
(declare-fun call_firefly.ite36 () Int)
(declare-fun call_firefly.ite2 () Int)
(declare-fun call_firefly.ite3 () Int)
(declare-fun call_firefly.ite28 () Int)
(declare-fun call_firefly.ite29 () Int)
(declare-fun call_firefly.flby4 () Int)
(declare-fun flby () Bool)
(declare-fun call_firefly.ite5 () Int)
(declare-fun param_e4 () Bool)
(declare-fun call_firefly.ite37 () Int)
(declare-fun call_excludes8.excludes () Bool)
(declare-fun call_Sofar.Sofar () Bool)
(declare-fun call_firefly.ite14 () Int)
(declare-fun call_firefly.ite32 () Int)
(declare-fun call_firefly.flby5 () Int)
(declare-fun call_firefly.ite40 () Int)
(declare-fun env () Bool)
(declare-fun call_firefly.shared () Int)
(declare-fun param_e1 () Bool)
(declare-fun call_firefly.ite17 () Int)
(declare-fun call_firefly.ite11 () Int)
(declare-fun call_firefly.ite21 () Int)
(declare-fun call_firefly.ite6 () Int)
(declare-fun call_firefly.garde6 () Bool)
(declare-fun call_firefly.ite22 () Int)
(declare-fun param_e7 () Bool)
(declare-fun call_firefly.garde8 () Bool)
(declare-fun call_firefly.ite10 () Int)
(declare-fun call_firefly.flby2 () Int)
(declare-fun call_firefly.ite38 () Int)
(declare-fun call_firefly.ite23 () Int)
(declare-fun call_firefly.dirty () Int)
(declare-fun call_firefly.ite31 () Int)
(declare-fun call_firefly.mem_invalid () Int)
(declare-fun call_firefly.ite8 () Int)
(declare-fun invalid () Int)
(declare-fun call_firefly.exclusive () Int)
(declare-fun call_firefly.ite16 () Int)
(declare-fun call_firefly.ite35 () Int)
(declare-fun call_firefly.flby () Int)
(declare-fun call_firefly.ite30 () Int)
(declare-fun call_firefly.ite9 () Int)
(declare-fun call_firefly.ite34 () Int)
(declare-fun call_firefly.ite27 () Int)
(declare-fun shared () Int)
(declare-fun exclusive () Int)
(declare-fun call_Sofar.flby () Bool)
(declare-fun call_firefly.ite15 () Int)
(declare-fun call_firefly.ite19 () Int)
(declare-fun call_firefly.ite13 () Int)
(declare-fun _OK_ () Bool)
(declare-fun call_firefly.ite20 () Int)
(declare-fun param_e2 () Bool)
(declare-fun call_firefly.ite18 () Int)
(declare-fun param_i_invalid () Int)
(declare-fun dirty () Int)
(declare-fun call_firefly.ite39 () Int)
(declare-fun call_firefly.ite26 () Int)
(declare-fun call_firefly.garde3 () Bool)
(declare-fun call_firefly.flby3 () Int)
(declare-fun param_e6 () Bool)
(declare-fun call_firefly.ite24 () Int)
(declare-fun param_e8 () Bool)
(declare-fun call_firefly.ite25 () Int)
(declare-fun call_firefly.ite12 () Int)
(declare-fun call_firefly.ite4 () Int)
(declare-fun call_firefly.ite () Int)
(define-fun .def_1128 () Bool (= call_Sofar.flby call_Sofar.Sofar))
(define-fun .def_951 () Bool (not param_e3))
(define-fun .def_905 () Bool (not param_e2))
(define-fun .def_1111 () Bool (and .def_905 .def_951))
(define-fun .def_976 () Bool (not param_e4))
(define-fun .def_1112 () Bool (and .def_976 .def_1111))
(define-fun .def_993 () Bool (not param_e5))
(define-fun .def_1113 () Bool (and .def_993 .def_1112))
(define-fun .def_1011 () Bool (not param_e6))
(define-fun .def_1114 () Bool (and .def_1011 .def_1113))
(define-fun .def_837 () Bool (not param_e7))
(define-fun .def_1115 () Bool (and .def_837 .def_1114))
(define-fun .def_845 () Bool (not param_e8))
(define-fun .def_1116 () Bool (and .def_845 .def_1115))
(define-fun .def_932 () Bool (not param_e1))
(define-fun .def_1117 () Bool (or .def_932 .def_1116))
(define-fun .def_1104 () Bool (and .def_905 param_e1))
(define-fun .def_1105 () Bool (and .def_951 .def_1104))
(define-fun .def_1106 () Bool (and .def_976 .def_1105))
(define-fun .def_1107 () Bool (and .def_993 .def_1106))
(define-fun .def_1108 () Bool (and .def_1011 .def_1107))
(define-fun .def_1109 () Bool (and .def_837 .def_1108))
(define-fun .def_1110 () Bool (and .def_845 .def_1109))
(define-fun .def_1118 () Bool (or .def_1110 .def_1117))
(define-fun .def_1097 () Bool (and param_e2 .def_932))
(define-fun .def_1098 () Bool (and .def_951 .def_1097))
(define-fun .def_1099 () Bool (and .def_976 .def_1098))
(define-fun .def_1100 () Bool (and .def_993 .def_1099))
(define-fun .def_1101 () Bool (and .def_1011 .def_1100))
(define-fun .def_1102 () Bool (and .def_837 .def_1101))
(define-fun .def_1103 () Bool (and .def_845 .def_1102))
(define-fun .def_1119 () Bool (or .def_1103 .def_1118))
(define-fun .def_1070 () Bool (and .def_905 .def_932))
(define-fun .def_1091 () Bool (and param_e3 .def_1070))
(define-fun .def_1092 () Bool (and .def_976 .def_1091))
(define-fun .def_1093 () Bool (and .def_993 .def_1092))
(define-fun .def_1094 () Bool (and .def_1011 .def_1093))
(define-fun .def_1095 () Bool (and .def_837 .def_1094))
(define-fun .def_1096 () Bool (and .def_845 .def_1095))
(define-fun .def_1120 () Bool (or .def_1096 .def_1119))
(define-fun .def_1071 () Bool (and .def_951 .def_1070))
(define-fun .def_1086 () Bool (and param_e4 .def_1071))
(define-fun .def_1087 () Bool (and .def_993 .def_1086))
(define-fun .def_1088 () Bool (and .def_1011 .def_1087))
(define-fun .def_1089 () Bool (and .def_837 .def_1088))
(define-fun .def_1090 () Bool (and .def_845 .def_1089))
(define-fun .def_1121 () Bool (or .def_1090 .def_1120))
(define-fun .def_1072 () Bool (and .def_976 .def_1071))
(define-fun .def_1082 () Bool (and param_e5 .def_1072))
(define-fun .def_1083 () Bool (and .def_1011 .def_1082))
(define-fun .def_1084 () Bool (and .def_837 .def_1083))
(define-fun .def_1085 () Bool (and .def_845 .def_1084))
(define-fun .def_1122 () Bool (or .def_1085 .def_1121))
(define-fun .def_1073 () Bool (and .def_993 .def_1072))
(define-fun .def_1079 () Bool (and param_e6 .def_1073))
(define-fun .def_1080 () Bool (and .def_837 .def_1079))
(define-fun .def_1081 () Bool (and .def_845 .def_1080))
(define-fun .def_1123 () Bool (or .def_1081 .def_1122))
(define-fun .def_1074 () Bool (and .def_1011 .def_1073))
(define-fun .def_1077 () Bool (and param_e7 .def_1074))
(define-fun .def_1078 () Bool (and .def_845 .def_1077))
(define-fun .def_1124 () Bool (or .def_1078 .def_1123))
(define-fun .def_1075 () Bool (and .def_837 .def_1074))
(define-fun .def_1076 () Bool (and param_e8 .def_1075))
(define-fun .def_1125 () Bool (or .def_1076 .def_1124))
(define-fun .def_1126 () Bool (= call_excludes8.excludes .def_1125))
(define-fun .def_1068 () Bool (= call_firefly.flby call_firefly.mem_invalid))
(define-fun .def_1066 () Bool (= call_firefly.flby5 call_firefly.shared))
(define-fun .def_1064 () Bool (= call_firefly.flby4 call_firefly.exclusive))
(define-fun .def_1062 () Bool (= call_firefly.flby3 call_firefly.dirty))
(define-fun .def_1060 () Bool (= call_firefly.flby2 call_firefly.invalid))
(define-fun .def_1058 () Bool (= env call_Sofar.Sofar))
(define-fun .def_1055 () Bool (= shared call_firefly.shared))
(define-fun .def_1051 () Bool (= exclusive call_firefly.exclusive))
(define-fun .def_1047 () Bool (= dirty call_firefly.dirty))
(define-fun .def_1043 () Bool (= invalid call_firefly.invalid))
(define-fun .def_1037 () Bool (not env))
(define-fun .def_1038 () Bool (or flby .def_1037))
(define-fun .def_1039 () Bool (= _OK_ .def_1038))
(define-fun .def_1031 () Bool (= call_firefly.ite36 call_firefly.ite37))
(define-fun .def_1032 () Bool (or param_e7 .def_1031))
(define-fun .def_1028 () Bool (= call_firefly.ite37 call_firefly.ite34))
(define-fun .def_1029 () Bool (or .def_837 .def_1028))
(define-fun .def_1024 () Bool (= call_firefly.ite8 call_firefly.ite5))
(define-fun .def_1025 () Bool (or .def_837 .def_1024))
(define-fun .def_1021 () Bool (= call_firefly.ite7 call_firefly.ite8))
(define-fun .def_1022 () Bool (or param_e7 .def_1021))
(define-fun .def_1026 () Bool (and .def_1022 .def_1025))
(define-fun .def_1030 () Bool (and .def_1026 .def_1029))
(define-fun .def_1033 () Bool (and .def_1030 .def_1032))
(define-fun .def_1017 () Bool (= call_firefly.ite17 call_firefly.ite18))
(define-fun .def_1018 () Bool (or param_e6 .def_1017))
(define-fun .def_1014 () Bool (= call_firefly.ite15 call_firefly.ite18))
(define-fun .def_1015 () Bool (or .def_1011 .def_1014))
(define-fun .def_1010 () Bool (= call_firefly.ite9 call_firefly.ite4))
(define-fun .def_1012 () Bool (or .def_1010 .def_1011))
(define-fun .def_1006 () Bool (= call_firefly.ite9 call_firefly.ite8))
(define-fun .def_1008 () Bool (or .def_1006 param_e6))
(define-fun .def_1013 () Bool (and .def_1008 .def_1012))
(define-fun .def_1016 () Bool (and .def_1013 .def_1015))
(define-fun .def_1019 () Bool (and .def_1016 .def_1018))
(define-fun .def_1001 () Bool (= call_firefly.ite38 call_firefly.ite37))
(define-fun .def_1002 () Bool (or param_e5 .def_1001))
(define-fun .def_997 () Bool (= call_firefly.ite38 call_firefly.ite33))
(define-fun .def_998 () Bool (or .def_993 .def_997))
(define-fun .def_992 () Bool (= call_firefly.ite27 call_firefly.ite24))
(define-fun .def_994 () Bool (or .def_992 .def_993))
(define-fun .def_988 () Bool (= call_firefly.ite26 call_firefly.ite27))
(define-fun .def_990 () Bool (or .def_988 param_e5))
(define-fun .def_995 () Bool (and .def_990 .def_994))
(define-fun .def_999 () Bool (and .def_995 .def_998))
(define-fun .def_1003 () Bool (and .def_999 .def_1002))
(define-fun .def_984 () Bool (= call_firefly.ite28 call_firefly.ite27))
(define-fun .def_985 () Bool (or param_e4 .def_984))
(define-fun .def_980 () Bool (= call_firefly.ite28 call_firefly.ite23))
(define-fun .def_981 () Bool (or .def_976 .def_980))
(define-fun .def_975 () Bool (= call_firefly.ite19 call_firefly.ite14))
(define-fun .def_977 () Bool (or .def_975 .def_976))
(define-fun .def_971 () Bool (= call_firefly.ite19 call_firefly.ite18))
(define-fun .def_973 () Bool (or .def_971 param_e4))
(define-fun .def_978 () Bool (and .def_973 .def_977))
(define-fun .def_982 () Bool (and .def_978 .def_981))
(define-fun .def_986 () Bool (and .def_982 .def_985))
(define-fun .def_966 () Bool (= call_firefly.ite39 call_firefly.ite38))
(define-fun .def_967 () Bool (or param_e3 .def_966))
(define-fun .def_962 () Bool (= call_firefly.ite39 call_firefly.ite32))
(define-fun .def_963 () Bool (or .def_951 .def_962))
(define-fun .def_958 () Bool (= call_firefly.ite29 call_firefly.ite28))
(define-fun .def_959 () Bool (or param_e3 .def_958))
(define-fun .def_954 () Bool (= call_firefly.ite22 call_firefly.ite29))
(define-fun .def_955 () Bool (or .def_951 .def_954))
(define-fun .def_950 () Bool (= call_firefly.ite10 call_firefly.ite3))
(define-fun .def_952 () Bool (or .def_950 .def_951))
(define-fun .def_946 () Bool (= call_firefly.ite10 call_firefly.ite9))
(define-fun .def_948 () Bool (or .def_946 param_e3))
(define-fun .def_953 () Bool (and .def_948 .def_952))
(define-fun .def_956 () Bool (and .def_953 .def_955))
(define-fun .def_960 () Bool (and .def_956 .def_959))
(define-fun .def_964 () Bool (and .def_960 .def_963))
(define-fun .def_968 () Bool (and .def_964 .def_967))
(define-fun .def_941 () Bool (= call_firefly.ite30 call_firefly.ite29))
(define-fun .def_942 () Bool (or param_e1 .def_941))
(define-fun .def_937 () Bool (= call_firefly.ite21 call_firefly.ite30))
(define-fun .def_938 () Bool (or .def_932 .def_937))
(define-fun .def_931 () Bool (= call_firefly.ite12 call_firefly.ite))
(define-fun .def_933 () Bool (or .def_931 .def_932))
(define-fun .def_927 () Bool (= call_firefly.ite11 call_firefly.ite12))
(define-fun .def_929 () Bool (or .def_927 param_e1))
(define-fun .def_934 () Bool (and .def_929 .def_933))
(define-fun .def_939 () Bool (and .def_934 .def_938))
(define-fun .def_943 () Bool (and .def_939 .def_942))
(define-fun .def_923 () Bool (= call_firefly.ite40 call_firefly.ite39))
(define-fun .def_924 () Bool (or param_e2 .def_923))
(define-fun .def_919 () Bool (= call_firefly.ite31 call_firefly.ite40))
(define-fun .def_920 () Bool (or .def_905 .def_919))
(define-fun .def_914 () Bool (= call_firefly.ite20 call_firefly.ite19))
(define-fun .def_915 () Bool (or param_e2 .def_914))
(define-fun .def_910 () Bool (= call_firefly.ite13 call_firefly.ite20))
(define-fun .def_911 () Bool (or .def_905 .def_910))
(define-fun .def_904 () Bool (= call_firefly.ite11 call_firefly.ite2))
(define-fun .def_906 () Bool (or .def_904 .def_905))
(define-fun .def_900 () Bool (= call_firefly.ite11 call_firefly.ite10))
(define-fun .def_902 () Bool (or .def_900 param_e2))
(define-fun .def_907 () Bool (and .def_902 .def_906))
(define-fun .def_912 () Bool (and .def_907 .def_911))
(define-fun .def_916 () Bool (and .def_912 .def_915))
(define-fun .def_921 () Bool (and .def_916 .def_920))
(define-fun .def_925 () Bool (and .def_921 .def_924))
(define-fun .def_944 () Bool (and .def_925 .def_943))
(define-fun .def_969 () Bool (and .def_944 .def_968))
(define-fun .def_987 () Bool (and .def_969 .def_986))
(define-fun .def_1004 () Bool (and .def_987 .def_1003))
(define-fun .def_1020 () Bool (and .def_1004 .def_1019))
(define-fun .def_1034 () Bool (and .def_1020 .def_1033))
(define-fun .def_1040 () Bool (and .def_1034 .def_1039))
(define-fun .def_1044 () Bool (and .def_1040 .def_1043))
(define-fun .def_1048 () Bool (and .def_1044 .def_1047))
(define-fun .def_1052 () Bool (and .def_1048 .def_1051))
(define-fun .def_1056 () Bool (and .def_1052 .def_1055))
(define-fun .def_1059 () Bool (and .def_1056 .def_1058))
(define-fun .def_1061 () Bool (and .def_1059 .def_1060))
(define-fun .def_1063 () Bool (and .def_1061 .def_1062))
(define-fun .def_1065 () Bool (and .def_1063 .def_1064))
(define-fun .def_1067 () Bool (and .def_1065 .def_1066))
(define-fun .def_1069 () Bool (and .def_1067 .def_1068))
(define-fun .def_1127 () Bool (and .def_1069 .def_1126))
(define-fun .def_1129 () Bool (and .def_1127 .def_1128))
(define-fun .def_892 () Bool (<= 0 param_i_invalid))
(define-fun .def_894 () Bool (and .def_892 call_excludes8.excludes))
(define-fun .def_896 () Bool (= .def_894 call_Sofar.flby))
(define-fun .def_890 () Bool (= call_firefly.flby5 0))
(define-fun .def_887 () Bool (= call_firefly.flby4 0))
(define-fun .def_884 () Bool (= call_firefly.flby3 0))
(define-fun .def_881 () Bool (= call_firefly.flby2 call_firefly.mem_invalid))
(define-fun .def_877 () Bool (= param_i_invalid call_firefly.flby))
(define-fun .def_872 () Bool (= call_firefly.ite25 0))
(define-fun .def_871 () Bool (not call_firefly.garde8))
(define-fun .def_873 () Bool (or .def_871 .def_872))
(define-fun .def_867 () Bool (= call_firefly.ite15 1))
(define-fun .def_865 () Bool (not call_firefly.garde6))
(define-fun .def_868 () Bool (or .def_865 .def_867))
(define-fun .def_861 () Bool (= call_firefly.ite22 0))
(define-fun .def_859 () Bool (not call_firefly.garde3))
(define-fun .def_862 () Bool (or .def_859 .def_861))
(define-fun .def_854 () Bool (= call_firefly.ite35 call_firefly.ite36))
(define-fun .def_855 () Bool (or .def_845 .def_854))
(define-fun .def_849 () Bool (= call_firefly.ite6 call_firefly.ite7))
(define-fun .def_850 () Bool (or .def_845 .def_849))
(define-fun .def_843 () Bool (= call_firefly.ite25 call_firefly.ite26))
(define-fun .def_846 () Bool (or .def_843 .def_845))
(define-fun .def_851 () Bool (and .def_846 .def_850))
(define-fun .def_856 () Bool (and .def_851 .def_855))
(define-fun .def_835 () Bool (= call_firefly.ite16 call_firefly.ite17))
(define-fun .def_838 () Bool (or .def_835 .def_837))
(define-fun .def_840 () Bool (and .def_838 flby))
(define-fun .def_857 () Bool (and .def_840 .def_856))
(define-fun .def_863 () Bool (and .def_857 .def_862))
(define-fun .def_869 () Bool (and .def_863 .def_868))
(define-fun .def_874 () Bool (and .def_869 .def_873))
(define-fun .def_878 () Bool (and .def_874 .def_877))
(define-fun .def_882 () Bool (and .def_878 .def_881))
(define-fun .def_885 () Bool (and .def_882 .def_884))
(define-fun .def_888 () Bool (and .def_885 .def_887))
(define-fun .def_891 () Bool (and .def_888 .def_890))
(define-fun .def_897 () Bool (and .def_891 .def_896))
(define-fun .def_1130 () Bool (and .def_897 .def_1129))
(assert .def_1130)
